c colouring generated by benchmark framework
p edge 144 2596
v 1 13
v 2 14
v 3 2
v 4 6
v 5 7
v 6 15
v 7 9
v 8 8
v 9 11
v 10 10
v 11 12
v 12 3
v 13 7
v 14 4
v 15 3
v 16 11
v 17 10
v 18 5
v 19 1
v 20 12
v 21 13
v 22 14
v 23 6
v 24 9
v 25 14
v 26 11
v 27 9
v 28 5
v 29 12
v 30 4
v 31 8
v 32 6
v 33 10
v 34 2
v 35 7
v 36 1
v 37 1
v 38 5
v 39 8
v 40 7
v 41 0
v 42 6
v 43 2
v 44 4
v 45 12
v 46 3
v 47 11
v 48 15
v 49 8
v 50 6
v 51 10
v 52 12
v 53 3
v 54 1
v 55 7
v 56 0
v 57 2
v 58 4
v 59 14
v 60 5
v 61 9
v 62 13
v 63 5
v 64 2
v 65 4
v 66 0
v 67 10
v 68 1
v 69 3
v 70 6
v 71 8
v 72 11
v 73 2
v 74 3
v 75 4
v 76 8
v 77 1
v 78 13
v 79 6
v 80 15
v 81 0
v 82 7
v 83 9
v 84 14
v 85 6
v 86 10
v 87 7
v 88 3
v 89 9
v 90 11
v 91 0
v 92 2
v 93 4
v 94 5
v 95 1
v 96 12
v 97 0
v 98 12
v 99 6
v 100 15
v 101 5
v 102 2
v 103 4
v 104 3
v 105 1
v 106 9
v 107 10
v 108 8
v 109 15
v 110 9
v 111 1
v 112 0
v 113 6
v 114 10
v 115 11
v 116 7
v 117 5
v 118 8
v 119 2
v 120 4
v 121 11
v 122 7
v 123 14
v 124 9
v 125 8
v 126 12
v 127 15
v 128 10
v 129 6
v 130 1
v 131 5
v 132 13
v 133 4
v 134 8
v 135 12
v 136 1
v 137 2
v 138 3
v 139 13
v 140 11
v 141 7
v 142 0
v 143 15
v 144 10
